8
[[-1, 0, 0, 1926392677, 1694450926, 424527054, 1039524668, 255910311],[1881985817, -1, 0, 1707072577, 1917532027, 292527136, 1523283345, 0],[1131865145, 855273557, -1, 0, 1973614330, 2142454298, 1829102487, 2052258101],[0, 1189139704, 1060036541, -1, 1052561985, 0, 1888035538, 510995066],[0, 0, 0, 0, -1, 1558004646, 1899179304, 93734834],[763903058, 0, 1369520448, 1439558967, 0, -1, 772734376, 819352048],[0, 123967475, 1817532645, 557348626, 1891412860, 783187421, -1, 16612089],[1577010361, 322716368, 1267383001, 1252828770, 619403724, 1392605074, 1620913405, -1]]